[VALIDATOR STDOUT]
Checking plan: /home/jfan5/Safety-gen/runs/benchmark/optic/blocksworld_20260205_112402/blocksworld/optic_results/bw_ops3_n14_seed14001.plan
Plan executed successfully - checking goal
Plan valid
Final value: 48 

Successful plans:
Value: 48
 /home/jfan5/Safety-gen/runs/benchmark/optic/blocksworld_20260205_112402/blocksworld/optic_results/bw_ops3_n14_seed14001.plan 48
